study/exp-portion-fine-grain-4v100/run-logs-backup-12-06/unsupervised_samgraph_cache_graphsage_kKHop2_com-friendster_coll_cache_asymm_link_2_cache_rate_012_batch_size_2000_concurrent_impl_MPS.log
config:eval_tsp="2022-12-05 17:30:56"
config:arch=arch5
config:num_train_worker=3
config:num_sample_worker=1
config:sample_type=khop2
config:root_path=/nvme/graph-learning-copy/samgraph/
config:dataset=com-friendster
config:pipeline=False
config:cache_policy=coll_cache_asymm_link
config:cache_percentage=0.12
config:num_epoch=4
config:batch_size=2000
config:num_hidden=256
config:max_sampling_jobs=1
config:max_copying_jobs=1
config:barriered_epoch=1
config:presample_epoch=2
config:omp_thread_num=13
config:unsupervised=True
config:amp=True
config:rolling=0
config:fanout=[25, 10]
config:lr=0.003
config:dropout=0.5
config:single_gpu=False
config:max_num_step=1000
config:validate_configs=False
config:report_acc=0
config:dataset_path=/nvme/graph-learning-copy/samgraph/com-friendster
config:torch_thread_num=13
config:train_workers=['cuda:0', 'cuda:1', 'cuda:2']
config:sample_workers=['cuda:3']
config:num_fanout=2
config:num_layer=2
config:_run_mode=RunMode.FGNN
config:_log_level=warn
config:_profile_level=3
config:_empty_feat=0
config:_arch=5
config:_sample_type=5
config:_cache_policy=13
test_result:init:input_scale_factor=1.1
0 :  {link #0 : 1}, {link #1 : 2},
1 :  {link #0 : 2}, {link #1 : 0},
2 :  {link #0 : 0}, {link #1 : 1},
0 :  {link #0 : 1}, {link #1 : 2},
1 :  {link #0 : 2}, {link #1 : 0},
2 :  {link #0 : 0}, {link #1 : 1},
0 :  {link #0 : 1}, {link #1 : 2},
1 :  {link #0 : 2}, {link #1 : 0},
2 :  {link #0 : 0}, {link #1 : 1},
Set parameter WLSAccessID
Set parameter WLSSecret
Set parameter LicenseID
Set parameter TimeLimit to value 200
Set parameter MIPGap to value 0.05
Set parameter GomoryPasses to value 0
Set parameter Aggregate to value 0
Set parameter LogFile to value "cppsolver.log"
Set parameter Threads to value 26
Academic license - for non-commercial use only - registered to xiaoniu.sxn@sjtu.edu.cn
Gurobi Optimizer version 9.5.1 build v9.5.1rc2 (linux64)
Thread count: 40 physical cores, 80 logical processors, using up to 26 threads
Academic license - for non-commercial use only - registered to xiaoniu.sxn@sjtu.edu.cn
Optimize a model with 21582 rows, 10274 columns and 64716 nonzeros
Model fingerprint: 0xa966cee7
Variable types: 4 continuous, 10270 integer (10270 binary)
Coefficient statistics:
  Matrix range     [3e-04, 2e+03]
  Objective range  [1e+00, 1e+00]
  Bounds range     [1e+00, 1e+00]
  RHS range        [1e+00, 2e+03]
Found heuristic solution: objective 2.000000e+09
Presolve removed 12326 rows and 0 columns
Presolve time: 0.09s
Presolved: 9256 rows, 10274 columns, 38012 nonzeros
Found heuristic solution: objective 90991.557649
Variable types: 4 continuous, 10270 integer (10270 binary)

Root relaxation: objective 1.072724e+04, 8954 iterations, 0.49 seconds (0.48 work units)

    Nodes    |    Current Node    |     Objective Bounds      |     Work
 Expl Unexpl |  Obj  Depth IntInf | Incumbent    BestBd   Gap | It/Node Time

     0     0 10727.2403    0   29 90991.5576 10727.2403  88.2%     -    0s
H    0     0                    10763.440982 10727.2403  0.34%     -    0s

Explored 1 nodes (12921 simplex iterations) in 0.87 seconds (0.76 work units)
Thread count was 26 (of 80 available processors)

Solution count 3: 10763.4 90991.6 2e+09 

Optimal solution found (tolerance 5.00e-02)
Best objective 1.076344098223e+04, best bound 1.072724025110e+04, gap 0.3363%
coll_cache:optimal_local_rate=0.371407,0.372066,0.373612,
coll_cache:optimal_remote_rate=0.555362,0.554703,0.553157,
coll_cache:optimal_cpu_rate=0.0732308,0.0732308,0.0732308,
z=10763.4
test_result:init:feat_nbytes=67182966784
test_result:init:cache_nbytes=8062126080
test_result:init:feat_nbytes=67182966784
test_result:init:cache_nbytes=8068163584
test_result:init:feat_nbytes=67182966784
test_result:init:cache_nbytes=8064886784
[Train  Worker 2/3] Started with PID 130368(Tesla V100-SXM2-16GB)
[Train  Worker 2] run train for 4 epochs with 1002 steps
[Train  Worker 1/3] Started with PID 130365(Tesla V100-SXM2-16GB)
[Train  Worker 1] run train for 4 epochs with 1002 steps
[CUDA] cuda0: usage: 14.99 GB
[SAM] cuda0 data alloc        : 0.00 Bytes
[SAM] cuda0 workspace         : 2.73 GB
[SAM] cuda0 workspace reserve : 1.35 GB
[SAM] cuda0 total             : 2.73 GB
[Train  Worker 0/3] Started with PID 130363(Tesla V100-SXM2-16GB)
[Train  Worker 0] run train for 4 epochs with 1002 steps
Epoch 00000 | Epoch Time 8.3898 | Total Train Time(Profiler) 4.1730 | Copy Time 4.1879
[CUDA] cuda0: usage: 14.99 GB
[SAM] cuda0 data alloc        : 0.00 Bytes
[SAM] cuda0 workspace         : 2.73 GB
[SAM] cuda0 workspace reserve : 1.36 GB
[SAM] cuda0 total             : 2.73 GB
Epoch 00001 | Epoch Time 7.2166 | Total Train Time(Profiler) 3.0363 | Copy Time 4.1508
[CUDA] cuda0: usage: 14.99 GB
[SAM] cuda0 data alloc        : 0.00 Bytes
[SAM] cuda0 workspace         : 2.73 GB
[SAM] cuda0 workspace reserve : 1.35 GB
[SAM] cuda0 total             : 2.73 GB
Epoch 00002 | Epoch Time 7.2361 | Total Train Time(Profiler) 3.0467 | Copy Time 4.1588
[CUDA] cuda0: usage: 14.99 GB
[SAM] cuda0 data alloc        : 0.00 Bytes
[SAM] cuda0 workspace         : 2.73 GB
[SAM] cuda0 workspace reserve : 1.35 GB
[SAM] cuda0 total             : 2.73 GB
Epoch 00003 | Epoch Time 7.2577 | Total Train Time(Profiler) 3.0773 | Copy Time 4.1518
[Train  Worker 2] Avg Epoch Time 7.2365 | Train Total Time(Profiler) 3.0548 | Copy Time 4.1514
[Train  Worker 1] Avg Epoch Time 7.2365 | Train Total Time(Profiler) 3.0521 | Copy Time 4.1561
[Train  Worker 0] Avg Epoch Time 7.2368 | Train Total Time(Profiler) 3.0534 | Copy Time 4.1538
    [Step(average) Profiler Level 1 E3 S1001]
        L1  sample           0.005450 | send           0.001270
        L1  recv             0.000000 | copy           0.000000 | convert time 0.000000 | train  0.000000
        L1  feature nbytes 0.00 Bytes | label nbytes 0.00 Bytes
        L1  id nbytes      0.00 Bytes | graph nbytes 0.00 Bytes
        L1  miss nbytes    0.00 Bytes | remote nbytes 0.00 Bytes
        L1  num nodes         1262210 | num samples     1406477
    [Step(average) Profiler Level 2 E3 S1001]
        L2  shuffle     0.000074 | core sample  0.001980 | id remap        0.003212
        L2  graph copy  0.000000 | id copy      0.000000 | cache feat copy 0.000000
        L2  last layer sample time 0.000298 | size 57474.985030
    [Step(average) Profiler Level 3 E3 S1001]
        L3  khop sample coo  0.001675 | khop sort coo      0.000000 | khop count edge     0.000036 | khop compact edge 0.000218
        L3  walk sample coo  0.000000 | walk topk total    0.000000 | walk topk step1     0.000000 | walk topk step2   0.000000
        L3  walk topk step3  0.000000 | walk topk step4    0.000000 | walk topk step5     0.000000
        L3  walk topk step6  0.000000 | walk topk step7    0.000000
        L3  remap unique     0.000174 | remap populate     0.002732 | remap mapnode       0.000000 | remap mapedge     0.000493
        L3  cache get_index  0.000000 | cache copy_index   0.000000 | cache extract_miss  0.000000
        L3  cache copy_miss  0.000000 | cache combine_miss 0.000000 | cache combine cache 0.000000 | cache combine remote 0.000000
        L3  label extract  0.000000
    [Init Profiler Level 1]
        L1  init     6.6382 | sampler init    50.5786 | trainer init 0.0000
    [Init Profiler Level 2]
        L2  load ds        10.0399 | init queue          23.3627
        L2  presample      22.0388 | build interal ds     1.7727
        L2  build cache     0.0000
    [Init Profiler Level 3]
        L3  load dataset: mmap     6.6354 | copy         3.4045
        L3  dist queue: alloc      0.0007 | pin         23.3620 | push     0.0000
        L3  presample: init        0.1804
        L3  presample: sample     10.9568 | copy         0.7934
        L3  presample: count       9.6409 | sort         0.2148
        L3  presample: reset       0.0015 | get rank     0.0249
        L3  internal: cuda ctx     1.5239 | cuda stream     0.2425
[Sample Worker 0/1] Started with PID 130361(Tesla V100-SXM2-16GB)
[Sample Worker 0] run sample for 4 epochs with 1002 steps
[Sample Worker 0] Avg Sample Total Time 6.7448 | Sampler Total Time(Profiler) 6.7338
test_result:sample_time=5.4614
test_result:get_cache_miss_index_time=0.0000
test_result:enqueue_samples_time=1.2725
test_result:epoch_time:sample_total=6.7448
[CUDA] cuda0: usage: 14.99 GB
[SAM] cuda0 data alloc        : 0.00 Bytes
[SAM] cuda0 workspace         : 2.73 GB
[SAM] cuda0 workspace reserve : 1.35 GB
[SAM] cuda0 total             : 2.73 GB
    [Step(average) Profiler Level 1 E3 S1001]
        L1  sample           0.000000 | send           0.000000
        L1  recv             0.001426 | copy           0.012436 | convert time 0.000439 | train  0.008703
        L1  feature nbytes    1.20 GB | label nbytes   15.62 KB
        L1  id nbytes      0.00 Bytes | graph nbytes 0.00 Bytes
        L1  miss nbytes      94.72 MB | remote nbytes  680.61 MB
        L1  num nodes               0 | num samples           0
    [Step(average) Profiler Level 2 E3 S1001]
        L2  shuffle     0.000000 | core sample  0.000000 | id remap        0.000000
        L2  graph copy  0.000003 | id copy      0.000000 | cache feat copy 0.011007
        L2  last layer sample time 0.000000 | size 0.000000
    [Step(average) Profiler Level 3 E3 S1001]
        L3  khop sample coo  0.000000 | khop sort coo      0.000000 | khop count edge     0.000000 | khop compact edge 0.000000
        L3  walk sample coo  0.000000 | walk topk total    0.000000 | walk topk step1     0.000000 | walk topk step2   0.000000
        L3  walk topk step3  0.000000 | walk topk step4    0.000000 | walk topk step5     0.000000
        L3  walk topk step6  0.000000 | walk topk step7    0.000000
        L3  remap unique     0.000000 | remap populate     0.000000 | remap mapnode       0.000000 | remap mapedge     0.000000
        L3  cache get_index  0.000785 | cache copy_index   0.000000 | cache extract_miss  0.000000
        L3  cache copy_miss  0.000000 | cache combine_miss 0.008277 | cache combine cache 0.001510 | cache combine remote 0.008687
        L3  label extract  0.000015
    [Step(max) Profiler Level 1 E3 S1001]
        L1  sample           0.000000 | send           0.000000
        L1  recv             0.000000 | copy           0.000000 | convert time 0.000000 | train  0.000000
        L1  feature nbytes 0.00 Bytes | label nbytes 0.00 Bytes
        L1  id nbytes      0.00 Bytes | graph nbytes   10.92 MB
        L1  miss nbytes    0.00 Bytes | remote nbytes 0.00 Bytes
        L1  num nodes               0 | num samples           0
    [Step(max) Profiler Level 2 E3 S1001]
        L2  shuffle     0.000000 | core sample  0.000000 | id remap        0.000000
        L2  graph copy  0.000000 | id copy      0.000000 | cache feat copy 0.000000
        L2  last layer sample time 0.000000 | size 0.000000
    [Step(max) Profiler Level 3 E3 S1001]
        L3  khop sample coo  0.000000 | khop sort coo      0.000000 | khop count edge     0.000000 | khop compact edge 0.000000
        L3  walk sample coo  0.000000 | walk topk total    0.000000 | walk topk step1     0.000000 | walk topk step2   0.000000
        L3  walk topk step3  0.000000 | walk topk step4    0.000000 | walk topk step5     0.000000
        L3  walk topk step6  0.000000 | walk topk step7    0.000000
        L3  remap unique     0.000000 | remap populate     0.000000 | remap mapnode       0.000000 | remap mapedge     0.000000
        L3  cache get_index  0.000000 | cache copy_index   0.000000 | cache extract_miss  0.000000
        L3  cache copy_miss  0.000000 | cache combine_miss 0.000000 | cache combine cache 0.000000 | cache combine remote 0.000000
        L3  label extract  0.000000
    [Step(min) Profiler Level 1 E3 S1001]
        L1  sample           0.000000 | send           0.000000
        L1  recv             0.000000 | copy           0.000000 | convert time 0.000000 | train  0.000000
        L1  feature nbytes 0.00 Bytes | label nbytes 0.00 Bytes
        L1  id nbytes      0.00 Bytes | graph nbytes   10.64 MB
        L1  miss nbytes    0.00 Bytes | remote nbytes 0.00 Bytes
        L1  num nodes               0 | num samples           0
    [Step(min) Profiler Level 2 E3 S1001]
        L2  shuffle     0.000000 | core sample  0.000000 | id remap        0.000000
        L2  graph copy  0.000000 | id copy      0.000000 | cache feat copy 0.000000
        L2  last layer sample time 0.000000 | size 0.000000
    [Step(min) Profiler Level 3 E3 S1001]
        L3  khop sample coo  0.000000 | khop sort coo      0.000000 | khop count edge     0.000000 | khop compact edge 0.000000
        L3  walk sample coo  0.000000 | walk topk total    0.000000 | walk topk step1     0.000000 | walk topk step2   0.000000
        L3  walk topk step3  0.000000 | walk topk step4    0.000000 | walk topk step5     0.000000
        L3  walk topk step6  0.000000 | walk topk step7    0.000000
        L3  remap unique     0.000000 | remap populate     0.000000 | remap mapnode       0.000000 | remap mapedge     0.000000
        L3  cache get_index  0.000000 | cache copy_index   0.000000 | cache extract_miss  0.000000
        L3  cache copy_miss  0.000000 | cache combine_miss 0.000000 | cache combine cache 0.000000 | cache combine remote 0.000000
        L3  label extract  0.000000
    [Init Profiler Level 1]
        L1  init     6.6382 | sampler init     0.0000 | trainer init 85.5141
    [Init Profiler Level 2]
        L2  load ds         6.6354 | init queue          23.3247
        L2  presample       0.0000 | build interal ds     1.4843
        L2  build cache    60.7051
    [Init Profiler Level 3]
        L3  load dataset: mmap     6.6354 | copy         0.0000
        L3  dist queue: alloc      0.0007 | pin         23.3240 | push     0.0000
        L3  presample: init        0.0000
        L3  presample: sample      0.0000 | copy         0.0000
        L3  presample: count       0.0000 | sort         0.0000
        L3  presample: reset       0.0000 | get rank     0.0000
        L3  internal: cuda ctx     1.4842 | cuda stream     0.0001
|===========================================================================|
|                  PyTorch CUDA memory summary, device ID 0                 |
|---------------------------------------------------------------------------|
|            CUDA OOMs: 0            |        cudaMalloc retries: 0         |
|===========================================================================|
|        Metric         | Cur Usage  | Peak Usage | Tot Alloc  | Tot Freed  |
|---------------------------------------------------------------------------|
| Allocated memory      |   17819 KB |  783688 KB |    2018 GB |    2018 GB |
|       from large pool |   12943 KB |  782261 KB |    2005 GB |    2005 GB |
|       from small pool |    4876 KB |    6663 KB |      12 GB |      12 GB |
|---------------------------------------------------------------------------|
| Active memory         |   17820 KB |  783688 KB |    2018 GB |    2018 GB |
|       from large pool |   12943 KB |  782261 KB |    2005 GB |    2005 GB |
|       from small pool |    4877 KB |    6663 KB |      12 GB |      12 GB |
|---------------------------------------------------------------------------|
| GPU reserved memory   |     776 MB |     776 MB |     776 MB |       0 B  |
|       from large pool |     768 MB |     768 MB |     768 MB |       0 B  |
|       from small pool |       8 MB |       8 MB |       8 MB |       0 B  |
|---------------------------------------------------------------------------|
| Non-releasable memory |   19044 KB |  687816 KB |    1951 GB |    1951 GB |
|       from large pool |   17777 KB |  685940 KB |    1935 GB |    1935 GB |
|       from small pool |    1267 KB |    3704 KB |      15 GB |      15 GB |
|---------------------------------------------------------------------------|
| Allocations           |      39    |      56    |  183068    |  183029    |
|       from large pool |       3    |      14    |   65464    |   65461    |
|       from small pool |      36    |      45    |  117604    |  117568    |
|---------------------------------------------------------------------------|
| Active allocs         |      40    |      56    |  183068    |  183028    |
|       from large pool |       3    |      14    |   65464    |   65461    |
|       from small pool |      37    |      45    |  117604    |  117567    |
|---------------------------------------------------------------------------|
| GPU reserved segments |      10    |      10    |      10    |       0    |
|       from large pool |       6    |       6    |       6    |       0    |
|       from small pool |       4    |       4    |       4    |       0    |
|---------------------------------------------------------------------------|
| Non-releasable allocs |      12    |      23    |   78697    |   78685    |
|       from large pool |       2    |       9    |   42016    |   42014    |
|       from small pool |      10    |      17    |   36681    |   36671    |
|---------------------------------------------------------------------------|
| Oversize allocations  |       0    |       0    |       0    |       0    |
|---------------------------------------------------------------------------|
| Oversize GPU segments |       0    |       0    |       0    |       0    |
|===========================================================================|

test_result:epoch_time:copy_time=4.1538
test_result:convert_time=0.1472
test_result:train_time=2.9063
test_result:epoch_time:train_total=3.0534
test_result:cache_percentage=0.1200
test_result:cache_hit_rate=1.0000
test_result:run_time=57.0872
